c *********************************
c * Circuit generated by BenCGen
c *
c * CarrySkipAdder_113_113_113_InOut_G4T
c *
c * Ports with 1 gate(s): 32
c * Ports with 2 gate(s): 624
c * Ports with 4 gate(s): 28
c * Total gates: 684
c *********************************
p cnf 910 2302
1 342 0
-1 -342 0
1 -341 0
342 -341 0
-1 -342 341 0
1 114 -345 0
-1 114 345 0
1 -114 345 0
-1 -114 -345 0
345 341 -227 0
-345 341 227 0
345 -341 227 0
-345 -341 -227 0
341 -346 0
345 -346 0
-341 -345 346 0
114 -347 0
1 -347 0
-114 -1 347 0
-346 344 0
-347 344 0
346 347 -344 0
2 115 -349 0
-2 115 349 0
2 -115 349 0
-2 -115 -349 0
349 344 -228 0
-349 344 228 0
349 -344 228 0
-349 -344 -228 0
344 -350 0
349 -350 0
-344 -349 350 0
115 -351 0
2 -351 0
-115 -2 351 0
-350 348 0
-351 348 0
350 351 -348 0
3 116 -353 0
-3 116 353 0
3 -116 353 0
-3 -116 -353 0
353 348 -229 0
-353 348 229 0
353 -348 229 0
-353 -348 -229 0
348 -354 0
353 -354 0
-348 -353 354 0
116 -355 0
3 -355 0
-116 -3 355 0
-354 352 0
-355 352 0
354 355 -352 0
4 117 -356 0
-4 117 356 0
4 -117 356 0
-4 -117 -356 0
356 352 -230 0
-356 352 230 0
356 -352 230 0
-356 -352 -230 0
352 -357 0
356 -357 0
-352 -356 357 0
117 -358 0
4 -358 0
-117 -4 358 0
-357 343 0
-358 343 0
357 358 -343 0
345 -359 0
349 -359 0
353 -359 0
356 -359 0
-345 -349 -353 -356 359 0
358 -360 0
-358 360 0
341 -361 0
359 -361 0
-341 -359 361 0
-361 362 0
-343 362 0
361 343 -362 0
5 118 -365 0
-5 118 365 0
5 -118 365 0
-5 -118 -365 0
365 362 -231 0
-365 362 231 0
365 -362 231 0
-365 -362 -231 0
362 -366 0
365 -366 0
-362 -365 366 0
118 -367 0
5 -367 0
-118 -5 367 0
-366 364 0
-367 364 0
366 367 -364 0
6 119 -369 0
-6 119 369 0
6 -119 369 0
-6 -119 -369 0
369 364 -232 0
-369 364 232 0
369 -364 232 0
-369 -364 -232 0
364 -370 0
369 -370 0
-364 -369 370 0
119 -371 0
6 -371 0
-119 -6 371 0
-370 368 0
-371 368 0
370 371 -368 0
7 120 -373 0
-7 120 373 0
7 -120 373 0
-7 -120 -373 0
373 368 -233 0
-373 368 233 0
373 -368 233 0
-373 -368 -233 0
368 -374 0
373 -374 0
-368 -373 374 0
120 -375 0
7 -375 0
-120 -7 375 0
-374 372 0
-375 372 0
374 375 -372 0
8 121 -376 0
-8 121 376 0
8 -121 376 0
-8 -121 -376 0
376 372 -234 0
-376 372 234 0
376 -372 234 0
-376 -372 -234 0
372 -377 0
376 -377 0
-372 -376 377 0
121 -378 0
8 -378 0
-121 -8 378 0
-377 363 0
-378 363 0
377 378 -363 0
365 -379 0
369 -379 0
373 -379 0
376 -379 0
-365 -369 -373 -376 379 0
378 -380 0
-378 380 0
362 -381 0
379 -381 0
-362 -379 381 0
-381 382 0
-363 382 0
381 363 -382 0
9 122 -385 0
-9 122 385 0
9 -122 385 0
-9 -122 -385 0
385 382 -235 0
-385 382 235 0
385 -382 235 0
-385 -382 -235 0
382 -386 0
385 -386 0
-382 -385 386 0
122 -387 0
9 -387 0
-122 -9 387 0
-386 384 0
-387 384 0
386 387 -384 0
10 123 -389 0
-10 123 389 0
10 -123 389 0
-10 -123 -389 0
389 384 -236 0
-389 384 236 0
389 -384 236 0
-389 -384 -236 0
384 -390 0
389 -390 0
-384 -389 390 0
123 -391 0
10 -391 0
-123 -10 391 0
-390 388 0
-391 388 0
390 391 -388 0
11 124 -393 0
-11 124 393 0
11 -124 393 0
-11 -124 -393 0
393 388 -237 0
-393 388 237 0
393 -388 237 0
-393 -388 -237 0
388 -394 0
393 -394 0
-388 -393 394 0
124 -395 0
11 -395 0
-124 -11 395 0
-394 392 0
-395 392 0
394 395 -392 0
12 125 -396 0
-12 125 396 0
12 -125 396 0
-12 -125 -396 0
396 392 -238 0
-396 392 238 0
396 -392 238 0
-396 -392 -238 0
392 -397 0
396 -397 0
-392 -396 397 0
125 -398 0
12 -398 0
-125 -12 398 0
-397 383 0
-398 383 0
397 398 -383 0
385 -399 0
389 -399 0
393 -399 0
396 -399 0
-385 -389 -393 -396 399 0
398 -400 0
-398 400 0
382 -401 0
399 -401 0
-382 -399 401 0
-401 402 0
-383 402 0
401 383 -402 0
13 126 -405 0
-13 126 405 0
13 -126 405 0
-13 -126 -405 0
405 402 -239 0
-405 402 239 0
405 -402 239 0
-405 -402 -239 0
402 -406 0
405 -406 0
-402 -405 406 0
126 -407 0
13 -407 0
-126 -13 407 0
-406 404 0
-407 404 0
406 407 -404 0
14 127 -409 0
-14 127 409 0
14 -127 409 0
-14 -127 -409 0
409 404 -240 0
-409 404 240 0
409 -404 240 0
-409 -404 -240 0
404 -410 0
409 -410 0
-404 -409 410 0
127 -411 0
14 -411 0
-127 -14 411 0
-410 408 0
-411 408 0
410 411 -408 0
15 128 -413 0
-15 128 413 0
15 -128 413 0
-15 -128 -413 0
413 408 -241 0
-413 408 241 0
413 -408 241 0
-413 -408 -241 0
408 -414 0
413 -414 0
-408 -413 414 0
128 -415 0
15 -415 0
-128 -15 415 0
-414 412 0
-415 412 0
414 415 -412 0
16 129 -416 0
-16 129 416 0
16 -129 416 0
-16 -129 -416 0
416 412 -242 0
-416 412 242 0
416 -412 242 0
-416 -412 -242 0
412 -417 0
416 -417 0
-412 -416 417 0
129 -418 0
16 -418 0
-129 -16 418 0
-417 403 0
-418 403 0
417 418 -403 0
405 -419 0
409 -419 0
413 -419 0
416 -419 0
-405 -409 -413 -416 419 0
418 -420 0
-418 420 0
402 -421 0
419 -421 0
-402 -419 421 0
-421 422 0
-403 422 0
421 403 -422 0
17 130 -425 0
-17 130 425 0
17 -130 425 0
-17 -130 -425 0
425 422 -243 0
-425 422 243 0
425 -422 243 0
-425 -422 -243 0
422 -426 0
425 -426 0
-422 -425 426 0
130 -427 0
17 -427 0
-130 -17 427 0
-426 424 0
-427 424 0
426 427 -424 0
18 131 -429 0
-18 131 429 0
18 -131 429 0
-18 -131 -429 0
429 424 -244 0
-429 424 244 0
429 -424 244 0
-429 -424 -244 0
424 -430 0
429 -430 0
-424 -429 430 0
131 -431 0
18 -431 0
-131 -18 431 0
-430 428 0
-431 428 0
430 431 -428 0
19 132 -433 0
-19 132 433 0
19 -132 433 0
-19 -132 -433 0
433 428 -245 0
-433 428 245 0
433 -428 245 0
-433 -428 -245 0
428 -434 0
433 -434 0
-428 -433 434 0
132 -435 0
19 -435 0
-132 -19 435 0
-434 432 0
-435 432 0
434 435 -432 0
20 133 -436 0
-20 133 436 0
20 -133 436 0
-20 -133 -436 0
436 432 -246 0
-436 432 246 0
436 -432 246 0
-436 -432 -246 0
432 -437 0
436 -437 0
-432 -436 437 0
133 -438 0
20 -438 0
-133 -20 438 0
-437 423 0
-438 423 0
437 438 -423 0
425 -439 0
429 -439 0
433 -439 0
436 -439 0
-425 -429 -433 -436 439 0
438 -440 0
-438 440 0
422 -441 0
439 -441 0
-422 -439 441 0
-441 442 0
-423 442 0
441 423 -442 0
21 134 -445 0
-21 134 445 0
21 -134 445 0
-21 -134 -445 0
445 442 -247 0
-445 442 247 0
445 -442 247 0
-445 -442 -247 0
442 -446 0
445 -446 0
-442 -445 446 0
134 -447 0
21 -447 0
-134 -21 447 0
-446 444 0
-447 444 0
446 447 -444 0
22 135 -449 0
-22 135 449 0
22 -135 449 0
-22 -135 -449 0
449 444 -248 0
-449 444 248 0
449 -444 248 0
-449 -444 -248 0
444 -450 0
449 -450 0
-444 -449 450 0
135 -451 0
22 -451 0
-135 -22 451 0
-450 448 0
-451 448 0
450 451 -448 0
23 136 -453 0
-23 136 453 0
23 -136 453 0
-23 -136 -453 0
453 448 -249 0
-453 448 249 0
453 -448 249 0
-453 -448 -249 0
448 -454 0
453 -454 0
-448 -453 454 0
136 -455 0
23 -455 0
-136 -23 455 0
-454 452 0
-455 452 0
454 455 -452 0
24 137 -456 0
-24 137 456 0
24 -137 456 0
-24 -137 -456 0
456 452 -250 0
-456 452 250 0
456 -452 250 0
-456 -452 -250 0
452 -457 0
456 -457 0
-452 -456 457 0
137 -458 0
24 -458 0
-137 -24 458 0
-457 443 0
-458 443 0
457 458 -443 0
445 -459 0
449 -459 0
453 -459 0
456 -459 0
-445 -449 -453 -456 459 0
458 -460 0
-458 460 0
442 -461 0
459 -461 0
-442 -459 461 0
-461 462 0
-443 462 0
461 443 -462 0
25 138 -465 0
-25 138 465 0
25 -138 465 0
-25 -138 -465 0
465 462 -251 0
-465 462 251 0
465 -462 251 0
-465 -462 -251 0
462 -466 0
465 -466 0
-462 -465 466 0
138 -467 0
25 -467 0
-138 -25 467 0
-466 464 0
-467 464 0
466 467 -464 0
26 139 -469 0
-26 139 469 0
26 -139 469 0
-26 -139 -469 0
469 464 -252 0
-469 464 252 0
469 -464 252 0
-469 -464 -252 0
464 -470 0
469 -470 0
-464 -469 470 0
139 -471 0
26 -471 0
-139 -26 471 0
-470 468 0
-471 468 0
470 471 -468 0
27 140 -473 0
-27 140 473 0
27 -140 473 0
-27 -140 -473 0
473 468 -253 0
-473 468 253 0
473 -468 253 0
-473 -468 -253 0
468 -474 0
473 -474 0
-468 -473 474 0
140 -475 0
27 -475 0
-140 -27 475 0
-474 472 0
-475 472 0
474 475 -472 0
28 141 -476 0
-28 141 476 0
28 -141 476 0
-28 -141 -476 0
476 472 -254 0
-476 472 254 0
476 -472 254 0
-476 -472 -254 0
472 -477 0
476 -477 0
-472 -476 477 0
141 -478 0
28 -478 0
-141 -28 478 0
-477 463 0
-478 463 0
477 478 -463 0
465 -479 0
469 -479 0
473 -479 0
476 -479 0
-465 -469 -473 -476 479 0
478 -480 0
-478 480 0
462 -481 0
479 -481 0
-462 -479 481 0
-481 482 0
-463 482 0
481 463 -482 0
29 142 -485 0
-29 142 485 0
29 -142 485 0
-29 -142 -485 0
485 482 -255 0
-485 482 255 0
485 -482 255 0
-485 -482 -255 0
482 -486 0
485 -486 0
-482 -485 486 0
142 -487 0
29 -487 0
-142 -29 487 0
-486 484 0
-487 484 0
486 487 -484 0
30 143 -489 0
-30 143 489 0
30 -143 489 0
-30 -143 -489 0
489 484 -256 0
-489 484 256 0
489 -484 256 0
-489 -484 -256 0
484 -490 0
489 -490 0
-484 -489 490 0
143 -491 0
30 -491 0
-143 -30 491 0
-490 488 0
-491 488 0
490 491 -488 0
31 144 -493 0
-31 144 493 0
31 -144 493 0
-31 -144 -493 0
493 488 -257 0
-493 488 257 0
493 -488 257 0
-493 -488 -257 0
488 -494 0
493 -494 0
-488 -493 494 0
144 -495 0
31 -495 0
-144 -31 495 0
-494 492 0
-495 492 0
494 495 -492 0
32 145 -496 0
-32 145 496 0
32 -145 496 0
-32 -145 -496 0
496 492 -258 0
-496 492 258 0
496 -492 258 0
-496 -492 -258 0
492 -497 0
496 -497 0
-492 -496 497 0
145 -498 0
32 -498 0
-145 -32 498 0
-497 483 0
-498 483 0
497 498 -483 0
485 -499 0
489 -499 0
493 -499 0
496 -499 0
-485 -489 -493 -496 499 0
498 -500 0
-498 500 0
482 -501 0
499 -501 0
-482 -499 501 0
-501 502 0
-483 502 0
501 483 -502 0
33 146 -505 0
-33 146 505 0
33 -146 505 0
-33 -146 -505 0
505 502 -259 0
-505 502 259 0
505 -502 259 0
-505 -502 -259 0
502 -506 0
505 -506 0
-502 -505 506 0
146 -507 0
33 -507 0
-146 -33 507 0
-506 504 0
-507 504 0
506 507 -504 0
34 147 -509 0
-34 147 509 0
34 -147 509 0
-34 -147 -509 0
509 504 -260 0
-509 504 260 0
509 -504 260 0
-509 -504 -260 0
504 -510 0
509 -510 0
-504 -509 510 0
147 -511 0
34 -511 0
-147 -34 511 0
-510 508 0
-511 508 0
510 511 -508 0
35 148 -513 0
-35 148 513 0
35 -148 513 0
-35 -148 -513 0
513 508 -261 0
-513 508 261 0
513 -508 261 0
-513 -508 -261 0
508 -514 0
513 -514 0
-508 -513 514 0
148 -515 0
35 -515 0
-148 -35 515 0
-514 512 0
-515 512 0
514 515 -512 0
36 149 -516 0
-36 149 516 0
36 -149 516 0
-36 -149 -516 0
516 512 -262 0
-516 512 262 0
516 -512 262 0
-516 -512 -262 0
512 -517 0
516 -517 0
-512 -516 517 0
149 -518 0
36 -518 0
-149 -36 518 0
-517 503 0
-518 503 0
517 518 -503 0
505 -519 0
509 -519 0
513 -519 0
516 -519 0
-505 -509 -513 -516 519 0
518 -520 0
-518 520 0
502 -521 0
519 -521 0
-502 -519 521 0
-521 522 0
-503 522 0
521 503 -522 0
37 150 -525 0
-37 150 525 0
37 -150 525 0
-37 -150 -525 0
525 522 -263 0
-525 522 263 0
525 -522 263 0
-525 -522 -263 0
522 -526 0
525 -526 0
-522 -525 526 0
150 -527 0
37 -527 0
-150 -37 527 0
-526 524 0
-527 524 0
526 527 -524 0
38 151 -529 0
-38 151 529 0
38 -151 529 0
-38 -151 -529 0
529 524 -264 0
-529 524 264 0
529 -524 264 0
-529 -524 -264 0
524 -530 0
529 -530 0
-524 -529 530 0
151 -531 0
38 -531 0
-151 -38 531 0
-530 528 0
-531 528 0
530 531 -528 0
39 152 -533 0
-39 152 533 0
39 -152 533 0
-39 -152 -533 0
533 528 -265 0
-533 528 265 0
533 -528 265 0
-533 -528 -265 0
528 -534 0
533 -534 0
-528 -533 534 0
152 -535 0
39 -535 0
-152 -39 535 0
-534 532 0
-535 532 0
534 535 -532 0
40 153 -536 0
-40 153 536 0
40 -153 536 0
-40 -153 -536 0
536 532 -266 0
-536 532 266 0
536 -532 266 0
-536 -532 -266 0
532 -537 0
536 -537 0
-532 -536 537 0
153 -538 0
40 -538 0
-153 -40 538 0
-537 523 0
-538 523 0
537 538 -523 0
525 -539 0
529 -539 0
533 -539 0
536 -539 0
-525 -529 -533 -536 539 0
538 -540 0
-538 540 0
522 -541 0
539 -541 0
-522 -539 541 0
-541 542 0
-523 542 0
541 523 -542 0
41 154 -545 0
-41 154 545 0
41 -154 545 0
-41 -154 -545 0
545 542 -267 0
-545 542 267 0
545 -542 267 0
-545 -542 -267 0
542 -546 0
545 -546 0
-542 -545 546 0
154 -547 0
41 -547 0
-154 -41 547 0
-546 544 0
-547 544 0
546 547 -544 0
42 155 -549 0
-42 155 549 0
42 -155 549 0
-42 -155 -549 0
549 544 -268 0
-549 544 268 0
549 -544 268 0
-549 -544 -268 0
544 -550 0
549 -550 0
-544 -549 550 0
155 -551 0
42 -551 0
-155 -42 551 0
-550 548 0
-551 548 0
550 551 -548 0
43 156 -553 0
-43 156 553 0
43 -156 553 0
-43 -156 -553 0
553 548 -269 0
-553 548 269 0
553 -548 269 0
-553 -548 -269 0
548 -554 0
553 -554 0
-548 -553 554 0
156 -555 0
43 -555 0
-156 -43 555 0
-554 552 0
-555 552 0
554 555 -552 0
44 157 -556 0
-44 157 556 0
44 -157 556 0
-44 -157 -556 0
556 552 -270 0
-556 552 270 0
556 -552 270 0
-556 -552 -270 0
552 -557 0
556 -557 0
-552 -556 557 0
157 -558 0
44 -558 0
-157 -44 558 0
-557 543 0
-558 543 0
557 558 -543 0
545 -559 0
549 -559 0
553 -559 0
556 -559 0
-545 -549 -553 -556 559 0
558 -560 0
-558 560 0
542 -561 0
559 -561 0
-542 -559 561 0
-561 562 0
-543 562 0
561 543 -562 0
45 158 -565 0
-45 158 565 0
45 -158 565 0
-45 -158 -565 0
565 562 -271 0
-565 562 271 0
565 -562 271 0
-565 -562 -271 0
562 -566 0
565 -566 0
-562 -565 566 0
158 -567 0
45 -567 0
-158 -45 567 0
-566 564 0
-567 564 0
566 567 -564 0
46 159 -569 0
-46 159 569 0
46 -159 569 0
-46 -159 -569 0
569 564 -272 0
-569 564 272 0
569 -564 272 0
-569 -564 -272 0
564 -570 0
569 -570 0
-564 -569 570 0
159 -571 0
46 -571 0
-159 -46 571 0
-570 568 0
-571 568 0
570 571 -568 0
47 160 -573 0
-47 160 573 0
47 -160 573 0
-47 -160 -573 0
573 568 -273 0
-573 568 273 0
573 -568 273 0
-573 -568 -273 0
568 -574 0
573 -574 0
-568 -573 574 0
160 -575 0
47 -575 0
-160 -47 575 0
-574 572 0
-575 572 0
574 575 -572 0
48 161 -576 0
-48 161 576 0
48 -161 576 0
-48 -161 -576 0
576 572 -274 0
-576 572 274 0
576 -572 274 0
-576 -572 -274 0
572 -577 0
576 -577 0
-572 -576 577 0
161 -578 0
48 -578 0
-161 -48 578 0
-577 563 0
-578 563 0
577 578 -563 0
565 -579 0
569 -579 0
573 -579 0
576 -579 0
-565 -569 -573 -576 579 0
578 -580 0
-578 580 0
562 -581 0
579 -581 0
-562 -579 581 0
-581 582 0
-563 582 0
581 563 -582 0
49 162 -585 0
-49 162 585 0
49 -162 585 0
-49 -162 -585 0
585 582 -275 0
-585 582 275 0
585 -582 275 0
-585 -582 -275 0
582 -586 0
585 -586 0
-582 -585 586 0
162 -587 0
49 -587 0
-162 -49 587 0
-586 584 0
-587 584 0
586 587 -584 0
50 163 -589 0
-50 163 589 0
50 -163 589 0
-50 -163 -589 0
589 584 -276 0
-589 584 276 0
589 -584 276 0
-589 -584 -276 0
584 -590 0
589 -590 0
-584 -589 590 0
163 -591 0
50 -591 0
-163 -50 591 0
-590 588 0
-591 588 0
590 591 -588 0
51 164 -593 0
-51 164 593 0
51 -164 593 0
-51 -164 -593 0
593 588 -277 0
-593 588 277 0
593 -588 277 0
-593 -588 -277 0
588 -594 0
593 -594 0
-588 -593 594 0
164 -595 0
51 -595 0
-164 -51 595 0
-594 592 0
-595 592 0
594 595 -592 0
52 165 -596 0
-52 165 596 0
52 -165 596 0
-52 -165 -596 0
596 592 -278 0
-596 592 278 0
596 -592 278 0
-596 -592 -278 0
592 -597 0
596 -597 0
-592 -596 597 0
165 -598 0
52 -598 0
-165 -52 598 0
-597 583 0
-598 583 0
597 598 -583 0
585 -599 0
589 -599 0
593 -599 0
596 -599 0
-585 -589 -593 -596 599 0
598 -600 0
-598 600 0
582 -601 0
599 -601 0
-582 -599 601 0
-601 602 0
-583 602 0
601 583 -602 0
53 166 -605 0
-53 166 605 0
53 -166 605 0
-53 -166 -605 0
605 602 -279 0
-605 602 279 0
605 -602 279 0
-605 -602 -279 0
602 -606 0
605 -606 0
-602 -605 606 0
166 -607 0
53 -607 0
-166 -53 607 0
-606 604 0
-607 604 0
606 607 -604 0
54 167 -609 0
-54 167 609 0
54 -167 609 0
-54 -167 -609 0
609 604 -280 0
-609 604 280 0
609 -604 280 0
-609 -604 -280 0
604 -610 0
609 -610 0
-604 -609 610 0
167 -611 0
54 -611 0
-167 -54 611 0
-610 608 0
-611 608 0
610 611 -608 0
55 168 -613 0
-55 168 613 0
55 -168 613 0
-55 -168 -613 0
613 608 -281 0
-613 608 281 0
613 -608 281 0
-613 -608 -281 0
608 -614 0
613 -614 0
-608 -613 614 0
168 -615 0
55 -615 0
-168 -55 615 0
-614 612 0
-615 612 0
614 615 -612 0
56 169 -616 0
-56 169 616 0
56 -169 616 0
-56 -169 -616 0
616 612 -282 0
-616 612 282 0
616 -612 282 0
-616 -612 -282 0
612 -617 0
616 -617 0
-612 -616 617 0
169 -618 0
56 -618 0
-169 -56 618 0
-617 603 0
-618 603 0
617 618 -603 0
605 -619 0
609 -619 0
613 -619 0
616 -619 0
-605 -609 -613 -616 619 0
618 -620 0
-618 620 0
602 -621 0
619 -621 0
-602 -619 621 0
-621 622 0
-603 622 0
621 603 -622 0
57 170 -625 0
-57 170 625 0
57 -170 625 0
-57 -170 -625 0
625 622 -283 0
-625 622 283 0
625 -622 283 0
-625 -622 -283 0
622 -626 0
625 -626 0
-622 -625 626 0
170 -627 0
57 -627 0
-170 -57 627 0
-626 624 0
-627 624 0
626 627 -624 0
58 171 -629 0
-58 171 629 0
58 -171 629 0
-58 -171 -629 0
629 624 -284 0
-629 624 284 0
629 -624 284 0
-629 -624 -284 0
624 -630 0
629 -630 0
-624 -629 630 0
171 -631 0
58 -631 0
-171 -58 631 0
-630 628 0
-631 628 0
630 631 -628 0
59 172 -633 0
-59 172 633 0
59 -172 633 0
-59 -172 -633 0
633 628 -285 0
-633 628 285 0
633 -628 285 0
-633 -628 -285 0
628 -634 0
633 -634 0
-628 -633 634 0
172 -635 0
59 -635 0
-172 -59 635 0
-634 632 0
-635 632 0
634 635 -632 0
60 173 -636 0
-60 173 636 0
60 -173 636 0
-60 -173 -636 0
636 632 -286 0
-636 632 286 0
636 -632 286 0
-636 -632 -286 0
632 -637 0
636 -637 0
-632 -636 637 0
173 -638 0
60 -638 0
-173 -60 638 0
-637 623 0
-638 623 0
637 638 -623 0
625 -639 0
629 -639 0
633 -639 0
636 -639 0
-625 -629 -633 -636 639 0
638 -640 0
-638 640 0
622 -641 0
639 -641 0
-622 -639 641 0
-641 642 0
-623 642 0
641 623 -642 0
61 174 -645 0
-61 174 645 0
61 -174 645 0
-61 -174 -645 0
645 642 -287 0
-645 642 287 0
645 -642 287 0
-645 -642 -287 0
642 -646 0
645 -646 0
-642 -645 646 0
174 -647 0
61 -647 0
-174 -61 647 0
-646 644 0
-647 644 0
646 647 -644 0
62 175 -649 0
-62 175 649 0
62 -175 649 0
-62 -175 -649 0
649 644 -288 0
-649 644 288 0
649 -644 288 0
-649 -644 -288 0
644 -650 0
649 -650 0
-644 -649 650 0
175 -651 0
62 -651 0
-175 -62 651 0
-650 648 0
-651 648 0
650 651 -648 0
63 176 -653 0
-63 176 653 0
63 -176 653 0
-63 -176 -653 0
653 648 -289 0
-653 648 289 0
653 -648 289 0
-653 -648 -289 0
648 -654 0
653 -654 0
-648 -653 654 0
176 -655 0
63 -655 0
-176 -63 655 0
-654 652 0
-655 652 0
654 655 -652 0
64 177 -656 0
-64 177 656 0
64 -177 656 0
-64 -177 -656 0
656 652 -290 0
-656 652 290 0
656 -652 290 0
-656 -652 -290 0
652 -657 0
656 -657 0
-652 -656 657 0
177 -658 0
64 -658 0
-177 -64 658 0
-657 643 0
-658 643 0
657 658 -643 0
645 -659 0
649 -659 0
653 -659 0
656 -659 0
-645 -649 -653 -656 659 0
658 -660 0
-658 660 0
642 -661 0
659 -661 0
-642 -659 661 0
-661 662 0
-643 662 0
661 643 -662 0
65 178 -665 0
-65 178 665 0
65 -178 665 0
-65 -178 -665 0
665 662 -291 0
-665 662 291 0
665 -662 291 0
-665 -662 -291 0
662 -666 0
665 -666 0
-662 -665 666 0
178 -667 0
65 -667 0
-178 -65 667 0
-666 664 0
-667 664 0
666 667 -664 0
66 179 -669 0
-66 179 669 0
66 -179 669 0
-66 -179 -669 0
669 664 -292 0
-669 664 292 0
669 -664 292 0
-669 -664 -292 0
664 -670 0
669 -670 0
-664 -669 670 0
179 -671 0
66 -671 0
-179 -66 671 0
-670 668 0
-671 668 0
670 671 -668 0
67 180 -673 0
-67 180 673 0
67 -180 673 0
-67 -180 -673 0
673 668 -293 0
-673 668 293 0
673 -668 293 0
-673 -668 -293 0
668 -674 0
673 -674 0
-668 -673 674 0
180 -675 0
67 -675 0
-180 -67 675 0
-674 672 0
-675 672 0
674 675 -672 0
68 181 -676 0
-68 181 676 0
68 -181 676 0
-68 -181 -676 0
676 672 -294 0
-676 672 294 0
676 -672 294 0
-676 -672 -294 0
672 -677 0
676 -677 0
-672 -676 677 0
181 -678 0
68 -678 0
-181 -68 678 0
-677 663 0
-678 663 0
677 678 -663 0
665 -679 0
669 -679 0
673 -679 0
676 -679 0
-665 -669 -673 -676 679 0
678 -680 0
-678 680 0
662 -681 0
679 -681 0
-662 -679 681 0
-681 682 0
-663 682 0
681 663 -682 0
69 182 -685 0
-69 182 685 0
69 -182 685 0
-69 -182 -685 0
685 682 -295 0
-685 682 295 0
685 -682 295 0
-685 -682 -295 0
682 -686 0
685 -686 0
-682 -685 686 0
182 -687 0
69 -687 0
-182 -69 687 0
-686 684 0
-687 684 0
686 687 -684 0
70 183 -689 0
-70 183 689 0
70 -183 689 0
-70 -183 -689 0
689 684 -296 0
-689 684 296 0
689 -684 296 0
-689 -684 -296 0
684 -690 0
689 -690 0
-684 -689 690 0
183 -691 0
70 -691 0
-183 -70 691 0
-690 688 0
-691 688 0
690 691 -688 0
71 184 -693 0
-71 184 693 0
71 -184 693 0
-71 -184 -693 0
693 688 -297 0
-693 688 297 0
693 -688 297 0
-693 -688 -297 0
688 -694 0
693 -694 0
-688 -693 694 0
184 -695 0
71 -695 0
-184 -71 695 0
-694 692 0
-695 692 0
694 695 -692 0
72 185 -696 0
-72 185 696 0
72 -185 696 0
-72 -185 -696 0
696 692 -298 0
-696 692 298 0
696 -692 298 0
-696 -692 -298 0
692 -697 0
696 -697 0
-692 -696 697 0
185 -698 0
72 -698 0
-185 -72 698 0
-697 683 0
-698 683 0
697 698 -683 0
685 -699 0
689 -699 0
693 -699 0
696 -699 0
-685 -689 -693 -696 699 0
698 -700 0
-698 700 0
682 -701 0
699 -701 0
-682 -699 701 0
-701 702 0
-683 702 0
701 683 -702 0
73 186 -705 0
-73 186 705 0
73 -186 705 0
-73 -186 -705 0
705 702 -299 0
-705 702 299 0
705 -702 299 0
-705 -702 -299 0
702 -706 0
705 -706 0
-702 -705 706 0
186 -707 0
73 -707 0
-186 -73 707 0
-706 704 0
-707 704 0
706 707 -704 0
74 187 -709 0
-74 187 709 0
74 -187 709 0
-74 -187 -709 0
709 704 -300 0
-709 704 300 0
709 -704 300 0
-709 -704 -300 0
704 -710 0
709 -710 0
-704 -709 710 0
187 -711 0
74 -711 0
-187 -74 711 0
-710 708 0
-711 708 0
710 711 -708 0
75 188 -713 0
-75 188 713 0
75 -188 713 0
-75 -188 -713 0
713 708 -301 0
-713 708 301 0
713 -708 301 0
-713 -708 -301 0
708 -714 0
713 -714 0
-708 -713 714 0
188 -715 0
75 -715 0
-188 -75 715 0
-714 712 0
-715 712 0
714 715 -712 0
76 189 -716 0
-76 189 716 0
76 -189 716 0
-76 -189 -716 0
716 712 -302 0
-716 712 302 0
716 -712 302 0
-716 -712 -302 0
712 -717 0
716 -717 0
-712 -716 717 0
189 -718 0
76 -718 0
-189 -76 718 0
-717 703 0
-718 703 0
717 718 -703 0
705 -719 0
709 -719 0
713 -719 0
716 -719 0
-705 -709 -713 -716 719 0
718 -720 0
-718 720 0
702 -721 0
719 -721 0
-702 -719 721 0
-721 722 0
-703 722 0
721 703 -722 0
77 190 -725 0
-77 190 725 0
77 -190 725 0
-77 -190 -725 0
725 722 -303 0
-725 722 303 0
725 -722 303 0
-725 -722 -303 0
722 -726 0
725 -726 0
-722 -725 726 0
190 -727 0
77 -727 0
-190 -77 727 0
-726 724 0
-727 724 0
726 727 -724 0
78 191 -729 0
-78 191 729 0
78 -191 729 0
-78 -191 -729 0
729 724 -304 0
-729 724 304 0
729 -724 304 0
-729 -724 -304 0
724 -730 0
729 -730 0
-724 -729 730 0
191 -731 0
78 -731 0
-191 -78 731 0
-730 728 0
-731 728 0
730 731 -728 0
79 192 -733 0
-79 192 733 0
79 -192 733 0
-79 -192 -733 0
733 728 -305 0
-733 728 305 0
733 -728 305 0
-733 -728 -305 0
728 -734 0
733 -734 0
-728 -733 734 0
192 -735 0
79 -735 0
-192 -79 735 0
-734 732 0
-735 732 0
734 735 -732 0
80 193 -736 0
-80 193 736 0
80 -193 736 0
-80 -193 -736 0
736 732 -306 0
-736 732 306 0
736 -732 306 0
-736 -732 -306 0
732 -737 0
736 -737 0
-732 -736 737 0
193 -738 0
80 -738 0
-193 -80 738 0
-737 723 0
-738 723 0
737 738 -723 0
725 -739 0
729 -739 0
733 -739 0
736 -739 0
-725 -729 -733 -736 739 0
738 -740 0
-738 740 0
722 -741 0
739 -741 0
-722 -739 741 0
-741 742 0
-723 742 0
741 723 -742 0
81 194 -745 0
-81 194 745 0
81 -194 745 0
-81 -194 -745 0
745 742 -307 0
-745 742 307 0
745 -742 307 0
-745 -742 -307 0
742 -746 0
745 -746 0
-742 -745 746 0
194 -747 0
81 -747 0
-194 -81 747 0
-746 744 0
-747 744 0
746 747 -744 0
82 195 -749 0
-82 195 749 0
82 -195 749 0
-82 -195 -749 0
749 744 -308 0
-749 744 308 0
749 -744 308 0
-749 -744 -308 0
744 -750 0
749 -750 0
-744 -749 750 0
195 -751 0
82 -751 0
-195 -82 751 0
-750 748 0
-751 748 0
750 751 -748 0
83 196 -753 0
-83 196 753 0
83 -196 753 0
-83 -196 -753 0
753 748 -309 0
-753 748 309 0
753 -748 309 0
-753 -748 -309 0
748 -754 0
753 -754 0
-748 -753 754 0
196 -755 0
83 -755 0
-196 -83 755 0
-754 752 0
-755 752 0
754 755 -752 0
84 197 -756 0
-84 197 756 0
84 -197 756 0
-84 -197 -756 0
756 752 -310 0
-756 752 310 0
756 -752 310 0
-756 -752 -310 0
752 -757 0
756 -757 0
-752 -756 757 0
197 -758 0
84 -758 0
-197 -84 758 0
-757 743 0
-758 743 0
757 758 -743 0
745 -759 0
749 -759 0
753 -759 0
756 -759 0
-745 -749 -753 -756 759 0
758 -760 0
-758 760 0
742 -761 0
759 -761 0
-742 -759 761 0
-761 762 0
-743 762 0
761 743 -762 0
85 198 -765 0
-85 198 765 0
85 -198 765 0
-85 -198 -765 0
765 762 -311 0
-765 762 311 0
765 -762 311 0
-765 -762 -311 0
762 -766 0
765 -766 0
-762 -765 766 0
198 -767 0
85 -767 0
-198 -85 767 0
-766 764 0
-767 764 0
766 767 -764 0
86 199 -769 0
-86 199 769 0
86 -199 769 0
-86 -199 -769 0
769 764 -312 0
-769 764 312 0
769 -764 312 0
-769 -764 -312 0
764 -770 0
769 -770 0
-764 -769 770 0
199 -771 0
86 -771 0
-199 -86 771 0
-770 768 0
-771 768 0
770 771 -768 0
87 200 -773 0
-87 200 773 0
87 -200 773 0
-87 -200 -773 0
773 768 -313 0
-773 768 313 0
773 -768 313 0
-773 -768 -313 0
768 -774 0
773 -774 0
-768 -773 774 0
200 -775 0
87 -775 0
-200 -87 775 0
-774 772 0
-775 772 0
774 775 -772 0
88 201 -776 0
-88 201 776 0
88 -201 776 0
-88 -201 -776 0
776 772 -314 0
-776 772 314 0
776 -772 314 0
-776 -772 -314 0
772 -777 0
776 -777 0
-772 -776 777 0
201 -778 0
88 -778 0
-201 -88 778 0
-777 763 0
-778 763 0
777 778 -763 0
765 -779 0
769 -779 0
773 -779 0
776 -779 0
-765 -769 -773 -776 779 0
778 -780 0
-778 780 0
762 -781 0
779 -781 0
-762 -779 781 0
-781 782 0
-763 782 0
781 763 -782 0
89 202 -785 0
-89 202 785 0
89 -202 785 0
-89 -202 -785 0
785 782 -315 0
-785 782 315 0
785 -782 315 0
-785 -782 -315 0
782 -786 0
785 -786 0
-782 -785 786 0
202 -787 0
89 -787 0
-202 -89 787 0
-786 784 0
-787 784 0
786 787 -784 0
90 203 -789 0
-90 203 789 0
90 -203 789 0
-90 -203 -789 0
789 784 -316 0
-789 784 316 0
789 -784 316 0
-789 -784 -316 0
784 -790 0
789 -790 0
-784 -789 790 0
203 -791 0
90 -791 0
-203 -90 791 0
-790 788 0
-791 788 0
790 791 -788 0
91 204 -793 0
-91 204 793 0
91 -204 793 0
-91 -204 -793 0
793 788 -317 0
-793 788 317 0
793 -788 317 0
-793 -788 -317 0
788 -794 0
793 -794 0
-788 -793 794 0
204 -795 0
91 -795 0
-204 -91 795 0
-794 792 0
-795 792 0
794 795 -792 0
92 205 -796 0
-92 205 796 0
92 -205 796 0
-92 -205 -796 0
796 792 -318 0
-796 792 318 0
796 -792 318 0
-796 -792 -318 0
792 -797 0
796 -797 0
-792 -796 797 0
205 -798 0
92 -798 0
-205 -92 798 0
-797 783 0
-798 783 0
797 798 -783 0
785 -799 0
789 -799 0
793 -799 0
796 -799 0
-785 -789 -793 -796 799 0
798 -800 0
-798 800 0
782 -801 0
799 -801 0
-782 -799 801 0
-801 802 0
-783 802 0
801 783 -802 0
93 206 -805 0
-93 206 805 0
93 -206 805 0
-93 -206 -805 0
805 802 -319 0
-805 802 319 0
805 -802 319 0
-805 -802 -319 0
802 -806 0
805 -806 0
-802 -805 806 0
206 -807 0
93 -807 0
-206 -93 807 0
-806 804 0
-807 804 0
806 807 -804 0
94 207 -809 0
-94 207 809 0
94 -207 809 0
-94 -207 -809 0
809 804 -320 0
-809 804 320 0
809 -804 320 0
-809 -804 -320 0
804 -810 0
809 -810 0
-804 -809 810 0
207 -811 0
94 -811 0
-207 -94 811 0
-810 808 0
-811 808 0
810 811 -808 0
95 208 -813 0
-95 208 813 0
95 -208 813 0
-95 -208 -813 0
813 808 -321 0
-813 808 321 0
813 -808 321 0
-813 -808 -321 0
808 -814 0
813 -814 0
-808 -813 814 0
208 -815 0
95 -815 0
-208 -95 815 0
-814 812 0
-815 812 0
814 815 -812 0
96 209 -816 0
-96 209 816 0
96 -209 816 0
-96 -209 -816 0
816 812 -322 0
-816 812 322 0
816 -812 322 0
-816 -812 -322 0
812 -817 0
816 -817 0
-812 -816 817 0
209 -818 0
96 -818 0
-209 -96 818 0
-817 803 0
-818 803 0
817 818 -803 0
805 -819 0
809 -819 0
813 -819 0
816 -819 0
-805 -809 -813 -816 819 0
818 -820 0
-818 820 0
802 -821 0
819 -821 0
-802 -819 821 0
-821 822 0
-803 822 0
821 803 -822 0
97 210 -825 0
-97 210 825 0
97 -210 825 0
-97 -210 -825 0
825 822 -323 0
-825 822 323 0
825 -822 323 0
-825 -822 -323 0
822 -826 0
825 -826 0
-822 -825 826 0
210 -827 0
97 -827 0
-210 -97 827 0
-826 824 0
-827 824 0
826 827 -824 0
98 211 -829 0
-98 211 829 0
98 -211 829 0
-98 -211 -829 0
829 824 -324 0
-829 824 324 0
829 -824 324 0
-829 -824 -324 0
824 -830 0
829 -830 0
-824 -829 830 0
211 -831 0
98 -831 0
-211 -98 831 0
-830 828 0
-831 828 0
830 831 -828 0
99 212 -833 0
-99 212 833 0
99 -212 833 0
-99 -212 -833 0
833 828 -325 0
-833 828 325 0
833 -828 325 0
-833 -828 -325 0
828 -834 0
833 -834 0
-828 -833 834 0
212 -835 0
99 -835 0
-212 -99 835 0
-834 832 0
-835 832 0
834 835 -832 0
100 213 -836 0
-100 213 836 0
100 -213 836 0
-100 -213 -836 0
836 832 -326 0
-836 832 326 0
836 -832 326 0
-836 -832 -326 0
832 -837 0
836 -837 0
-832 -836 837 0
213 -838 0
100 -838 0
-213 -100 838 0
-837 823 0
-838 823 0
837 838 -823 0
825 -839 0
829 -839 0
833 -839 0
836 -839 0
-825 -829 -833 -836 839 0
838 -840 0
-838 840 0
822 -841 0
839 -841 0
-822 -839 841 0
-841 842 0
-823 842 0
841 823 -842 0
101 214 -845 0
-101 214 845 0
101 -214 845 0
-101 -214 -845 0
845 842 -327 0
-845 842 327 0
845 -842 327 0
-845 -842 -327 0
842 -846 0
845 -846 0
-842 -845 846 0
214 -847 0
101 -847 0
-214 -101 847 0
-846 844 0
-847 844 0
846 847 -844 0
102 215 -849 0
-102 215 849 0
102 -215 849 0
-102 -215 -849 0
849 844 -328 0
-849 844 328 0
849 -844 328 0
-849 -844 -328 0
844 -850 0
849 -850 0
-844 -849 850 0
215 -851 0
102 -851 0
-215 -102 851 0
-850 848 0
-851 848 0
850 851 -848 0
103 216 -853 0
-103 216 853 0
103 -216 853 0
-103 -216 -853 0
853 848 -329 0
-853 848 329 0
853 -848 329 0
-853 -848 -329 0
848 -854 0
853 -854 0
-848 -853 854 0
216 -855 0
103 -855 0
-216 -103 855 0
-854 852 0
-855 852 0
854 855 -852 0
104 217 -856 0
-104 217 856 0
104 -217 856 0
-104 -217 -856 0
856 852 -330 0
-856 852 330 0
856 -852 330 0
-856 -852 -330 0
852 -857 0
856 -857 0
-852 -856 857 0
217 -858 0
104 -858 0
-217 -104 858 0
-857 843 0
-858 843 0
857 858 -843 0
845 -859 0
849 -859 0
853 -859 0
856 -859 0
-845 -849 -853 -856 859 0
858 -860 0
-858 860 0
842 -861 0
859 -861 0
-842 -859 861 0
-861 862 0
-843 862 0
861 843 -862 0
105 218 -865 0
-105 218 865 0
105 -218 865 0
-105 -218 -865 0
865 862 -331 0
-865 862 331 0
865 -862 331 0
-865 -862 -331 0
862 -866 0
865 -866 0
-862 -865 866 0
218 -867 0
105 -867 0
-218 -105 867 0
-866 864 0
-867 864 0
866 867 -864 0
106 219 -869 0
-106 219 869 0
106 -219 869 0
-106 -219 -869 0
869 864 -332 0
-869 864 332 0
869 -864 332 0
-869 -864 -332 0
864 -870 0
869 -870 0
-864 -869 870 0
219 -871 0
106 -871 0
-219 -106 871 0
-870 868 0
-871 868 0
870 871 -868 0
107 220 -873 0
-107 220 873 0
107 -220 873 0
-107 -220 -873 0
873 868 -333 0
-873 868 333 0
873 -868 333 0
-873 -868 -333 0
868 -874 0
873 -874 0
-868 -873 874 0
220 -875 0
107 -875 0
-220 -107 875 0
-874 872 0
-875 872 0
874 875 -872 0
108 221 -876 0
-108 221 876 0
108 -221 876 0
-108 -221 -876 0
876 872 -334 0
-876 872 334 0
876 -872 334 0
-876 -872 -334 0
872 -877 0
876 -877 0
-872 -876 877 0
221 -878 0
108 -878 0
-221 -108 878 0
-877 863 0
-878 863 0
877 878 -863 0
865 -879 0
869 -879 0
873 -879 0
876 -879 0
-865 -869 -873 -876 879 0
878 -880 0
-878 880 0
862 -881 0
879 -881 0
-862 -879 881 0
-881 882 0
-863 882 0
881 863 -882 0
109 222 -885 0
-109 222 885 0
109 -222 885 0
-109 -222 -885 0
885 882 -335 0
-885 882 335 0
885 -882 335 0
-885 -882 -335 0
882 -886 0
885 -886 0
-882 -885 886 0
222 -887 0
109 -887 0
-222 -109 887 0
-886 884 0
-887 884 0
886 887 -884 0
110 223 -889 0
-110 223 889 0
110 -223 889 0
-110 -223 -889 0
889 884 -336 0
-889 884 336 0
889 -884 336 0
-889 -884 -336 0
884 -890 0
889 -890 0
-884 -889 890 0
223 -891 0
110 -891 0
-223 -110 891 0
-890 888 0
-891 888 0
890 891 -888 0
111 224 -893 0
-111 224 893 0
111 -224 893 0
-111 -224 -893 0
893 888 -337 0
-893 888 337 0
893 -888 337 0
-893 -888 -337 0
888 -894 0
893 -894 0
-888 -893 894 0
224 -895 0
111 -895 0
-224 -111 895 0
-894 892 0
-895 892 0
894 895 -892 0
112 225 -896 0
-112 225 896 0
112 -225 896 0
-112 -225 -896 0
896 892 -338 0
-896 892 338 0
896 -892 338 0
-896 -892 -338 0
892 -897 0
896 -897 0
-892 -896 897 0
225 -898 0
112 -898 0
-225 -112 898 0
-897 883 0
-898 883 0
897 898 -883 0
885 -899 0
889 -899 0
893 -899 0
896 -899 0
-885 -889 -893 -896 899 0
898 -900 0
-898 900 0
882 -901 0
899 -901 0
-882 -899 901 0
-901 902 0
-883 902 0
901 883 -902 0
113 226 -904 0
-113 226 904 0
113 -226 904 0
-113 -226 -904 0
904 902 -339 0
-904 902 339 0
904 -902 339 0
-904 -902 -339 0
902 -905 0
904 -905 0
-902 -904 905 0
226 -906 0
113 -906 0
-226 -113 906 0
-905 903 0
-906 903 0
905 906 -903 0
904 -907 0
-904 907 0
906 -908 0
-906 908 0
902 -909 0
907 -909 0
-902 -907 909 0
-909 910 0
-903 910 0
909 903 -910 0
910 -340 0
-910 340 0
